benchmarks_CP/INST_36x36/45/inst36x36_45_7.dzn
S=6;
start=[|
8,	-1,	-1,	13,	-1,	18,	-1,	-1,	-1,	7,	-1,	5,	-1,	-1,	12,	9,	10,	23,	6,	-1,	-1,	-1,	-1,	31,	-1,	17,	19,	14,	-1,	-1,	-1,	-1,	-1,	-1,	-1,	-1|
-1,	-1,	-1,	-1,	-1,	-1,	16,	10,	13,	-1,	-1,	-1,	5,	-1,	29,	19,	-1,	-1,	-1,	1,	-1,	-1,	-1,	-1,	11,	8,	-1,	-1,	-1,	-1,	-1,	-1,	3,	18,	4,	-1|
35,	-1,	21,	-1,	36,	2,	-1,	-1,	15,	-1,	-1,	14,	-1,	18,	-1,	13,	-1,	24,	-1,	-1,	3,	-1,	-1,	-1,	34,	-1,	-1,	-1,	25,	31,	-1,	-1,	20,	17,	11,	33|
3,	-1,	-1,	10,	-1,	19,	18,	-1,	-1,	12,	-1,	34,	-1,	-1,	-1,	8,	25,	32,	33,	23,	5,	-1,	24,	-1,	-1,	-1,	-1,	-1,	7,	13,	-1,	-1,	-1,	15,	29,	6|
30,	-1,	-1,	5,	-1,	-1,	36,	-1,	-1,	17,	-1,	28,	14,	2,	-1,	-1,	26,	20,	-1,	-1,	-1,	-1,	15,	-1,	-1,	-1,	-1,	-1,	-1,	-1,	13,	-1,	-1,	-1,	-1,	-1|
-1,	-1,	15,	-1,	28,	26,	-1,	1,	25,	-1,	29,	21,	7,	-1,	34,	-1,	3,	-1,	2,	-1,	18,	-1,	-1,	-1,	-1,	5,	32,	6,	-1,	-1,	-1,	-1,	-1,	-1,	36,	-1|
-1,	-1,	34,	8,	-1,	-1,	-1,	-1,	14,	-1,	32,	18,	-1,	4,	-1,	7,	11,	17,	-1,	-1,	9,	-1,	25,	2,	-1,	16,	29,	-1,	-1,	-1,	-1,	6,	35,	30,	-1,	28|
-1,	30,	-1,	-1,	35,	-1,	27,	20,	8,	1,	21,	25,	29,	-1,	18,	-1,	-1,	-1,	-1,	11,	-1,	-1,	28,	7,	32,	-1,	17,	-1,	-1,	-1,	2,	15,	26,	22,	16,	-1|
-1,	-1,	-1,	18,	-1,	-1,	-1,	-1,	2,	-1,	-1,	-1,	-1,	3,	32,	16,	-1,	-1,	-1,	8,	-1,	-1,	-1,	22,	-1,	-1,	5,	34,	-1,	35,	-1,	-1,	-1,	13,	14,	-1|
2,	17,	7,	-1,	32,	22,	-1,	-1,	-1,	-1,	-1,	-1,	1,	35,	-1,	20,	8,	5,	-1,	15,	34,	-1,	-1,	26,	-1,	13,	-1,	25,	-1,	12,	21,	27,	-1,	-1,	-1,	-1|
25,	-1,	19,	-1,	-1,	31,	29,	13,	-1,	-1,	28,	-1,	33,	-1,	-1,	36,	22,	12,	-1,	14,	32,	-1,	-1,	3,	-1,	-1,	7,	9,	8,	-1,	17,	-1,	18,	1,	34,	23|
-1,	-1,	-1,	-1,	-1,	-1,	-1,	-1,	22,	34,	-1,	-1,	-1,	-1,	21,	25,	27,	2,	-1,	16,	-1,	-1,	-1,	29,	-1,	20,	23,	-1,	-1,	-1,	4,	8,	-1,	24,	-1,	32|
-1,	-1,	36,	34,	-1,	-1,	-1,	-1,	-1,	-1,	15,	13,	27,	-1,	-1,	-1,	1,	3,	-1,	-1,	16,	19,	-1,	-1,	-1,	7,	26,	-1,	10,	8,	-1,	-1,	29,	-1,	6,	20|
16,	24,	-1,	-1,	15,	-1,	-1,	14,	30,	-1,	-1,	-1,	-1,	-1,	13,	-1,	-1,	-1,	-1,	-1,	2,	22,	-1,	-1,	-1,	32,	-1,	-1,	-1,	17,	27,	28,	-1,	-1,	31,	12|
26,	-1,	35,	28,	-1,	11,	-1,	6,	-1,	16,	-1,	-1,	-1,	-1,	-1,	-1,	-1,	-1,	25,	5,	1,	-1,	-1,	-1,	14,	-1,	34,	31,	-1,	-1,	8,	10,	-1,	36,	-1,	-1|
-1,	-1,	-1,	-1,	-1,	27,	20,	-1,	7,	33,	-1,	3,	-1,	-1,	-1,	-1,	16,	31,	-1,	-1,	28,	23,	-1,	-1,	2,	-1,	-1,	36,	-1,	-1,	9,	22,	-1,	-1,	5,	15|
-1,	7,	9,	20,	-1,	3,	10,	28,	-1,	-1,	-1,	-1,	-1,	24,	-1,	-1,	-1,	-1,	29,	-1,	8,	4,	30,	15,	5,	27,	16,	-1,	13,	23,	-1,	25,	17,	-1,	-1,	21|
-1,	10,	2,	-1,	-1,	13,	-1,	-1,	12,	19,	31,	17,	8,	-1,	35,	-1,	-1,	-1,	20,	-1,	-1,	-1,	18,	-1,	-1,	-1,	-1,	-1,	9,	-1,	-1,	7,	23,	16,	-1,	30|
10,	26,	-1,	-1,	-1,	-1,	-1,	21,	-1,	27,	-1,	-1,	-1,	8,	23,	14,	33,	-1,	-1,	-1,	-1,	-1,	-1,	11,	3,	-1,	30,	-1,	15,	-1,	-1,	29,	-1,	20,	28,	4|
-1,	2,	-1,	-1,	3,	-1,	-1,	5,	28,	-1,	-1,	-1,	-1,	-1,	11,	-1,	-1,	-1,	-1,	-1,	26,	-1,	33,	21,	25,	-1,	-1,	4,	34,	27,	-1,	16,	9,	32,	17,	-1|
7,	-1,	4,	-1,	-1,	-1,	23,	-1,	3,	25,	24,	2,	13,	-1,	10,	17,	12,	29,	-1,	27,	14,	20,	-1,	36,	18,	-1,	-1,	-1,	-1,	-1,	-1,	21,	8,	33,	-1,	35|
-1,	35,	29,	-1,	5,	-1,	-1,	22,	-1,	-1,	-1,	36,	16,	-1,	1,	3,	24,	27,	32,	-1,	-1,	-1,	-1,	-1,	-1,	28,	-1,	12,	-1,	14,	-1,	-1,	-1,	-1,	7,	10|
-1,	-1,	-1,	6,	-1,	-1,	-1,	-1,	10,	-1,	18,	-1,	4,	-1,	-1,	21,	-1,	-1,	-1,	22,	23,	-1,	-1,	-1,	-1,	9,	24,	-1,	16,	-1,	12,	-1,	34,	5,	19,	27|
22,	8,	17,	-1,	27,	32,	33,	-1,	-1,	15,	34,	1,	2,	28,	-1,	-1,	-1,	7,	-1,	25,	-1,	-1,	12,	4,	23,	10,	20,	-1,	-1,	19,	6,	-1,	14,	-1,	-1,	-1|
-1,	13,	-1,	11,	-1,	-1,	-1,	-1,	17,	14,	-1,	-1,	-1,	-1,	6,	-1,	-1,	1,	-1,	28,	-1,	35,	-1,	-1,	-1,	25,	31,	-1,	-1,	-1,	-1,	-1,	-1,	-1,	24,	26|
-1,	-1,	-1,	-1,	16,	-1,	3,	-1,	31,	26,	5,	-1,	25,	-1,	8,	2,	21,	-1,	11,	24,	-1,	-1,	1,	-1,	13,	6,	14,	-1,	-1,	7,	-1,	-1,	36,	12,	-1,	17|
12,	-1,	25,	-1,	21,	-1,	-1,	18,	-1,	-1,	27,	20,	-1,	-1,	4,	10,	-1,	-1,	16,	-1,	-1,	6,	-1,	8,	-1,	-1,	-1,	24,	-1,	2,	-1,	13,	19,	-1,	-1,	-1|
17,	-1,	18,	-1,	-1,	-1,	-1,	19,	-1,	-1,	25,	-1,	34,	-1,	36,	5,	-1,	-1,	-1,	-1,	21,	-1,	9,	27,	-1,	-1,	-1,	8,	-1,	-1,	32,	1,	-1,	-1,	30,	2|
28,	22,	-1,	-1,	-1,	5,	30,	-1,	6,	-1,	7,	-1,	12,	13,	-1,	-1,	-1,	26,	-1,	-1,	-1,	-1,	-1,	17,	10,	33,	-1,	27,	-1,	34,	-1,	-1,	25,	9,	8,	-1|
14,	23,	20,	35,	29,	-1,	1,	2,	-1,	-1,	-1,	-1,	-1,	16,	33,	-1,	7,	19,	-1,	30,	31,	25,	-1,	-1,	-1,	11,	-1,	-1,	-1,	-1,	-1,	3,	-1,	-1,	-1,	22|
-1,	34,	-1,	32,	2,	7,	-1,	-1,	16,	13,	-1,	4,	24,	36,	-1,	-1,	-1,	-1,	5,	-1,	-1,	-1,	-1,	-1,	-1,	-1,	-1,	-1,	-1,	-1,	-1,	-1,	27,	-1,	23,	-1|
-1,	-1,	22,	-1,	4,	28,	-1,	-1,	21,	-1,	-1,	15,	31,	12,	7,	-1,	-1,	-1,	-1,	-1,	-1,	36,	-1,	-1,	-1,	-1,	33,	5,	-1,	-1,	20,	19,	-1,	-1,	-1,	9|
-1,	-1,	13,	-1,	-1,	30,	5,	-1,	32,	9,	20,	-1,	18,	10,	-1,	-1,	28,	-1,	35,	-1,	-1,	-1,	31,	-1,	7,	22,	8,	26,	-1,	-1,	-1,	-1,	15,	-1,	-1,	-1|
-1,	15,	26,	-1,	-1,	-1,	25,	-1,	36,	-1,	-1,	-1,	22,	5,	-1,	-1,	13,	16,	-1,	3,	-1,	-1,	7,	-1,	12,	34,	9,	20,	-1,	-1,	14,	18,	32,	-1,	-1,	31|
-1,	18,	3,	-1,	12,	-1,	-1,	-1,	26,	10,	6,	7,	15,	-1,	25,	-1,	19,	9,	14,	-1,	-1,	-1,	-1,	-1,	29,	23,	-1,	-1,	-1,	4,	-1,	30,	28,	-1,	-1,	5|
20,	-1,	-1,	-1,	10,	-1,	28,	33,	34,	18,	11,	12,	-1,	-1,	-1,	29,	-1,	-1,	15,	9,	22,	-1,	27,	-1,	-1,	-1,	-1,	-1,	6,	-1,	-1,	17,	-1,	4,	2,	1|];
